\ENCODING=ISO-8859-1
\Problem name: IloCplex

Minimize
 obj1: 0.824999999999975 x_05 + 0.125 x_02 - 2.225 x_19 - 2.125 x_17
       - 1.975 x_04 + 0.175 x_01 - 2.075 x_06 - 2.775 x_00 - 1.925 x_03
       - 2.225 x_09 - 2.125 x_07 - 3.175 x_08 + 0.824999999999975 x_15
       + 0.125 x_12 - 2.775 x_10 - 1.975 x_14 + 0.175 x_11 - 2.075 x_16
       - 1.925 x_13 - 3.175 x_18
Subject To
 c1:   u_02 + u_09 <= 3.1083214328197
 c2:   u_09 + u_04 <= 4.40195582191279
 c3:   u_00 + u_08 <= 5.13532478571133
 c4:   u_02 + u_01 + u_05 <= 4.47907967248108
 c5:   u_11 + u_18 <= 5.87181061858606
 c6:   u_13 + u_17 <= 6.98020160965524
 c7:   u_17 + u_16 <= 6.10087701461013
 c8:   u_16 + u_14 <= 4.58430826180347
 c9:   x_05 + x_02 >= 1
 c10:  - 300 hap_1_0 + ap_0 <= 0
 c11:  x_05 + x_02 + 2 hap_1_0 <= 3
 c12:  - x_02 >= -1
 c13:  - 300 han_2_0 + an_0 <= 0
 c14:  - x_02 + 2 han_2_0 <= 1
 c15:  x_19 + x_17 >= 1
 c16:  - 300 hap_1_1 + ap_1 <= 0
 c17:  x_19 + x_17 + 2 hap_1_1 <= 3
 c18:  - x_19 >= -1
 c19:  - 300 han_2_1 + an_1 <= 0
 c20:  - x_19 + 2 han_2_1 <= 1
 c21:  x_04 - x_01 >= 0
 c22:  - 300 hb_02 + b_02 <= 0
 c23:  x_04 - x_01 + 2 hb_02 <= 2
 c24:  x_06 + x_00 - x_03 >= 0
 c25:  - 300 hb_04 + b_04 <= 0
 c26:  x_06 + x_00 - x_03 + 2 hb_04 <= 2
 c27:  x_09 + x_07 >= 0
 c28:  - 300 hb_05 + b_05 <= 0
 c29:  x_09 + x_07 + 2 hb_05 <= 2
 c30:  - x_04 >= 0
 c31:  - 300 hb_06 + b_06 <= 0
 c32:  - x_04 + 2 hb_06 <= 2
 c33:  - x_05 - x_06 + x_03 >= 0
 c34:  - 300 hb_07 + b_07 <= 0
 c35:  - x_05 - x_06 + x_03 + 2 hb_07 <= 2
 c36:  x_01 - x_07 - x_08 >= 0
 c37:  - 300 hb_08 + b_08 <= 0
 c38:  x_01 - x_07 - x_08 + 2 hb_08 <= 2
 c39:  - x_09 + x_08 >= 0
 c40:  - 300 hb_09 + b_09 <= 0
 c41:  - x_09 + x_08 + 2 hb_09 <= 2
 c42:  x_15 + x_12 - x_10 >= 0
 c43:  - 300 hb_10 + b_10 <= 0
 c44:  x_15 + x_12 - x_10 + 2 hb_10 <= 2
 c45:  x_14 - x_11 >= 0
 c46:  - 300 hb_12 + b_12 <= 0
 c47:  x_14 - x_11 + 2 hb_12 <= 2
 c48:  - x_12 >= 0
 c49:  - 300 hb_13 + b_13 <= 0
 c50:  - x_12 + 2 hb_13 <= 2
 c51:  x_10 + x_16 - x_13 >= 0
 c52:  - 300 hb_14 + b_14 <= 0
 c53:  x_10 + x_16 - x_13 + 2 hb_14 <= 2
 c54:  - x_14 >= 0
 c55:  - 300 hb_16 + b_16 <= 0
 c56:  - x_14 + 2 hb_16 <= 2
 c57:  - x_15 - x_16 + x_13 >= 0
 c58:  - 300 hb_17 + b_17 <= 0
 c59:  - x_15 - x_16 + x_13 + 2 hb_17 <= 2
 c60:  - x_17 + x_11 - x_18 >= 0
 c61:  - 300 hb_18 + b_18 <= 0
 c62:  - x_17 + x_11 - x_18 + 2 hb_18 <= 2
 c63:  - u_00 + b_04 <= 0.225
 c64:  x_00 - 2 hdu_00 <= 0
 c65:  u_00 - b_04 + 300 hdu_00 <= 299.775
 c66:  - u_01 - b_02 + b_08 <= 1.175
 c67:  x_01 - 2 hdu_01 <= 0
 c68:  u_01 + b_02 - b_08 + 300 hdu_01 <= 298.825
 c69:  - u_02 + ap_0 - an_0 <= 3.125
 c70:  x_02 - 2 hdu_02 <= 0
 c71:  u_02 - ap_0 + an_0 + 300 hdu_02 <= 296.875
 c72:  - b_04 + b_07 - u_03 <= 1.075
 c73:  x_03 - 2 hdu_03 <= 0
 c74:  b_04 - b_07 + u_03 + 300 hdu_03 <= 298.925
 c75:  - u_04 + b_02 - b_06 <= 0.025
 c76:  x_04 - 2 hdu_04 <= 0
 c77:  u_04 - b_02 + b_06 + 300 hdu_04 <= 299.975
 c78:  - u_05 + ap_0 - b_07 <= 2.82499999999997
 c79:  x_05 - 2 hdu_05 <= 0
 c80:  u_05 - ap_0 + b_07 + 300 hdu_05 <= 297.175
 c81:  b_04 - b_07 - u_06 <= -0.075
 c82:  x_06 - 2 hdu_06 <= 0
 c83:  - b_04 + b_07 + u_06 + 300 hdu_06 <= 300.075
 c84:  b_05 - b_08 - u_07 <= -0.125
 c85:  x_07 - 2 hdu_07 <= 0
 c86:  - b_05 + b_08 + u_07 + 300 hdu_07 <= 300.125
 c87:  - u_08 - b_08 + b_09 <= -0.175
 c88:  x_08 - 2 hdu_08 <= 0
 c89:  u_08 + b_08 - b_09 + 300 hdu_08 <= 300.175
 c90:  - u_09 + b_05 - b_09 <= 0.775
 c91:  x_09 - 2 hdu_09 <= 0
 c92:  u_09 - b_05 + b_09 + 300 hdu_09 <= 299.225
 c93:  - b_10 + b_14 - u_10 <= 0.225
 c94:  x_10 - 2 hdu_10 <= 0
 c95:  b_10 - b_14 + u_10 + 300 hdu_10 <= 299.775
 c96:  - u_11 - b_12 + b_18 <= 1.175
 c97:  x_11 - 2 hdu_11 <= 0
 c98:  u_11 + b_12 - b_18 + 300 hdu_11 <= 298.825
 c99:  b_10 - b_13 - u_12 <= 3.125
 c100: x_12 - 2 hdu_12 <= 0
 c101: - b_10 + b_13 + u_12 + 300 hdu_12 <= 296.875
 c102: - u_13 - b_14 + b_17 <= 1.075
 c103: x_13 - 2 hdu_13 <= 0
 c104: u_13 + b_14 - b_17 + 300 hdu_13 <= 298.925
 c105: - u_14 + b_12 - b_16 <= 0.025
 c106: x_14 - 2 hdu_14 <= 0
 c107: u_14 - b_12 + b_16 + 300 hdu_14 <= 299.975
 c108: b_10 - b_17 - u_15 <= 2.82499999999997
 c109: x_15 - 2 hdu_15 <= 0
 c110: - b_10 + b_17 + u_15 + 300 hdu_15 <= 297.175
 c111: - u_16 + b_14 - b_17 <= -0.075
 c112: x_16 - 2 hdu_16 <= 0
 c113: u_16 - b_14 + b_17 + 300 hdu_16 <= 300.075
 c114: - u_17 + ap_1 - b_18 <= -0.125
 c115: x_17 - 2 hdu_17 <= 0
 c116: u_17 - ap_1 + b_18 + 300 hdu_17 <= 300.125
 c117: - u_18 - b_18 <= -0.175
 c118: x_18 - 2 hdu_18 <= 0
 c119: u_18 + b_18 + 300 hdu_18 <= 300.175
 c120: ap_1 - an_1 - u_19 <= 0.775
 c121: x_19 - 2 hdu_19 <= 0
 c122: - ap_1 + an_1 + u_19 + 300 hdu_19 <= 299.225
Bounds
      u_02 = 0
 0 <= u_09 <= 1
 0 <= u_04 <= 1
 0 <= u_00 <= 1
 0 <= u_08 <= 2
 0 <= u_01 <= 2
 0 <= u_05 <= 1
 0 <= u_11 <= 2
 0 <= u_18 <= 1
 0 <= u_13 <= 1
 0 <= u_17 <= 1
 0 <= u_16 <= 2
 0 <= u_14 <= 1
 0 <= x_05 <= 1
 0 <= x_02 <= 1
 0 <= hap_1_0 <= 1
 0 <= han_2_0 <= 1
 0 <= x_19 <= 1
 0 <= x_17 <= 1
 0 <= hap_1_1 <= 1
 0 <= han_2_1 <= 1
 0 <= x_04 <= 1
 0 <= x_01 <= 1
 0 <= hb_02 <= 1
 0 <= x_06 <= 1
 0 <= x_00 <= 1
 0 <= x_03 <= 1
 0 <= hb_04 <= 1
 0 <= x_09 <= 1
 0 <= x_07 <= 1
 0 <= hb_05 <= 1
 0 <= hb_06 <= 1
 0 <= hb_07 <= 1
 0 <= x_08 <= 1
 0 <= hb_08 <= 1
 0 <= hb_09 <= 1
 0 <= x_15 <= 1
 0 <= x_12 <= 1
 0 <= x_10 <= 1
 0 <= hb_10 <= 1
 0 <= x_14 <= 1
 0 <= x_11 <= 1
 0 <= hb_12 <= 1
 0 <= hb_13 <= 1
 0 <= x_16 <= 1
 0 <= x_13 <= 1
 0 <= hb_14 <= 1
 0 <= hb_16 <= 1
 0 <= hb_17 <= 1
 0 <= x_18 <= 1
 0 <= hb_18 <= 1
 0 <= hdu_00 <= 1
 0 <= hdu_01 <= 1
 0 <= hdu_02 <= 1
      u_03 = 0
 0 <= hdu_03 <= 1
 0 <= hdu_04 <= 1
 0 <= hdu_05 <= 1
 0 <= u_06 <= 3
 0 <= hdu_06 <= 1
 0 <= u_07 <= 3
 0 <= hdu_07 <= 1
 0 <= hdu_08 <= 1
 0 <= hdu_09 <= 1
 0 <= u_10 <= 3
 0 <= hdu_10 <= 1
 0 <= hdu_11 <= 1
 0 <= u_12 <= 2
 0 <= hdu_12 <= 1
 0 <= hdu_13 <= 1
 0 <= hdu_14 <= 1
 0 <= u_15 <= 1
 0 <= hdu_15 <= 1
 0 <= hdu_16 <= 1
 0 <= hdu_17 <= 1
 0 <= hdu_18 <= 1
 0 <= u_19 <= 2
 0 <= hdu_19 <= 1
Binaries
 hap_1_0  han_2_0  hap_1_1  han_2_1  hb_02  hb_04  hb_05  hb_06  hb_07  hb_08 
 hb_09  hb_10  hb_12  hb_13  hb_14  hb_16  hb_17  hb_18  hdu_00  hdu_01 
 hdu_02  hdu_03  hdu_04  hdu_05  hdu_06  hdu_07  hdu_08  hdu_09  hdu_10 
 hdu_11  hdu_12  hdu_13  hdu_14  hdu_15  hdu_16  hdu_17  hdu_18  hdu_19 
End
